p cnf 1559
-24 -486
-25 -489
-26 -492
-27 -495
-28 -498
-29 -501
-30 -504
-31 -507
-32 -510
-33 -513
-34 -516
-35 -519
-36 -522
-37 -525
-38 -528
-39 -531
-40 -534
-41 -537
-42 -540
-43 -543
-44 -546
-45 -549
-46 -552
-47 553
-48 554
-49 555
-50 556
-51 557
-52 558
-53 559
-54 560
-55 561
-56 562
-57 563
-58 -25
-58 -26
25 26 58
-59 -27
-59 -28
27 28 59
-60 -29
-60 -30
29 30 60
-61 -31
-61 -32
31 32 61
-62 -33
-62 -34
33 34 62
-63 -35
-63 -36
35 36 63
-64 -37
-64 -38
37 38 64
-65 -39
-65 -40
39 40 65
-66 -41
-66 -42
41 42 66
-67 -43
-67 -44
43 44 67
-68 -45
-68 -46
45 46 68
-69 -47
-69 -48
47 48 69
-70 -49
-70 -50
49 50 70
-71 -51
-71 -52
51 52 71
-72 -53
-72 -54
53 54 72
-73 -55
-73 -56
55 56 73
-74 58
-74 59
-58 -59 74
-75 60
-75 61
-60 -61 75
-76 62
-76 63
-62 -63 76
-77 64
-77 65
-64 -65 77
-78 66
-78 67
-66 -67 78
-79 68
-79 69
-68 -69 79
-80 70
-80 71
-70 -71 80
-81 72
-81 73
-72 -73 81
-82 74
-82 75
-74 -75 82
-83 76
-83 77
-76 -77 83
-84 78
-84 79
-78 -79 84
-85 80
-85 81
-80 -81 85
-86 82
-86 83
-82 -83 86
-87 84
-87 85
-84 -85 87
-88 86
-88 87
-86 -87 88
-89 -57
-89 88
57 -88 89
-90 -24
-90 25
24 -25 90
-91 24
-91 -25
-24 25 91
-92 -90
-92 -91
90 91 92
-93 24
-93 25
-24 -25 93
-94 -24
-94 -92
24 92 94
-95 24
-95 92
-24 -92 95
-96 -94
-96 -95
94 95 96
-97 24
-97 -92
-24 92 97
-98 -93
-98 -97
93 97 98
-99 -25
-99 26
25 -26 99
-100 25
-100 -26
-25 26 100
-101 -99
-101 -100
99 100 101
-102 25
-102 26
-25 -26 102
-103 98
-103 -101
-98 101 103
-104 -98
-104 101
98 -101 104
-105 -103
-105 -104
103 104 105
-106 -98
-106 -101
98 101 106
-107 -102
-107 -106
102 106 107
-108 -26
-108 27
26 -27 108
-109 26
-109 -27
-26 27 109
-110 -108
-110 -109
108 109 110
-111 26
-111 27
-26 -27 111
-112 107
-112 -110
-107 110 112
-113 -107
-113 110
107 -110 113
-114 -112
-114 -113
112 113 114
-115 -107
-115 -110
107 110 115
-116 -111
-116 -115
111 115 116
-117 -27
-117 28
27 -28 117
-118 27
-118 -28
-27 28 118
-119 -117
-119 -118
117 118 119
-120 27
-120 28
-27 -28 120
-121 116
-121 -119
-116 119 121
-122 -116
-122 119
116 -119 122
-123 -121
-123 -122
121 122 123
-124 -116
-124 -119
116 119 124
-125 -120
-125 -124
120 124 125
-126 -28
-126 29
28 -29 126
-127 28
-127 -29
-28 29 127
-128 -126
-128 -127
126 127 128
-129 28
-129 29
-28 -29 129
-130 125
-130 -128
-125 128 130
-131 -125
-131 128
125 -128 131
-132 -130
-132 -131
130 131 132
-133 -125
-133 -128
125 128 133
-134 -129
-134 -133
129 133 134
-135 -29
-135 30
29 -30 135
-136 29
-136 -30
-29 30 136
-137 -135
-137 -136
135 136 137
-138 29
-138 30
-29 -30 138
-139 134
-139 -137
-134 137 139
-140 -134
-140 137
134 -137 140
-141 -139
-141 -140
139 140 141
-142 -134
-142 -137
134 137 142
-143 -138
-143 -142
138 142 143
-144 -30
-144 31
30 -31 144
-145 30
-145 -31
-30 31 145
-146 -144
-146 -145
144 145 146
-147 30
-147 31
-30 -31 147
-148 143
-148 -146
-143 146 148
-149 -143
-149 146
143 -146 149
-150 -148
-150 -149
148 149 150
-151 -143
-151 -146
143 146 151
-152 -147
-152 -151
147 151 152
-153 -31
-153 32
31 -32 153
-154 31
-154 -32
-31 32 154
-155 -153
-155 -154
153 154 155
-156 31
-156 32
-31 -32 156
-157 152
-157 -155
-152 155 157
-158 -152
-158 155
152 -155 158
-159 -157
-159 -158
157 158 159
-160 -152
-160 -155
152 155 160
-161 -156
-161 -160
156 160 161
-162 -32
-162 33
32 -33 162
-163 32
-163 -33
-32 33 163
-164 -162
-164 -163
162 163 164
-165 32
-165 33
-32 -33 165
-166 161
-166 -164
-161 164 166
-167 -161
-167 164
161 -164 167
-168 -166
-168 -167
166 167 168
-169 -161
-169 -164
161 164 169
-170 -165
-170 -169
165 169 170
-171 -33
-171 34
33 -34 171
-172 33
-172 -34
-33 34 172
-173 -171
-173 -172
171 172 173
-174 33
-174 34
-33 -34 174
-175 170
-175 -173
-170 173 175
-176 -170
-176 173
170 -173 176
-177 -175
-177 -176
175 176 177
-178 -170
-178 -173
170 173 178
-179 -174
-179 -178
174 178 179
-180 -34
-180 35
34 -35 180
-181 34
-181 -35
-34 35 181
-182 -180
-182 -181
180 181 182
-183 34
-183 35
-34 -35 183
-184 179
-184 -182
-179 182 184
-185 -179
-185 182
179 -182 185
-186 -184
-186 -185
184 185 186
-187 -179
-187 -182
179 182 187
-188 -183
-188 -187
183 187 188
-189 -35
-189 36
35 -36 189
-190 35
-190 -36
-35 36 190
-191 -189
-191 -190
189 190 191
-192 35
-192 36
-35 -36 192
-193 188
-193 -191
-188 191 193
-194 -188
-194 191
188 -191 194
-195 -193
-195 -194
193 194 195
-196 -188
-196 -191
188 191 196
-197 -192
-197 -196
192 196 197
-198 -36
-198 37
36 -37 198
-199 36
-199 -37
-36 37 199
-200 -198
-200 -199
198 199 200
-201 36
-201 37
-36 -37 201
-202 197
-202 -200
-197 200 202
-203 -197
-203 200
197 -200 203
-204 -202
-204 -203
202 203 204
-205 -197
-205 -200
197 200 205
-206 -201
-206 -205
201 205 206
-207 -37
-207 38
37 -38 207
-208 37
-208 -38
-37 38 208
-209 -207
-209 -208
207 208 209
-210 37
-210 38
-37 -38 210
-211 206
-211 -209
-206 209 211
-212 -206
-212 209
206 -209 212
-213 -211
-213 -212
211 212 213
-214 -206
-214 -209
206 209 214
-215 -210
-215 -214
210 214 215
-216 -38
-216 39
38 -39 216
-217 38
-217 -39
-38 39 217
-218 -216
-218 -217
216 217 218
-219 38
-219 39
-38 -39 219
-220 215
-220 -218
-215 218 220
-221 -215
-221 218
215 -218 221
-222 -220
-222 -221
220 221 222
-223 -215
-223 -218
215 218 223
-224 -219
-224 -223
219 223 224
-225 -39
-225 40
39 -40 225
-226 39
-226 -40
-39 40 226
-227 -225
-227 -226
225 226 227
-228 39
-228 40
-39 -40 228
-229 224
-229 -227
-224 227 229
-230 -224
-230 227
224 -227 230
-231 -229
-231 -230
229 230 231
-232 -224
-232 -227
224 227 232
-233 -228
-233 -232
228 232 233
-234 -40
-234 41
40 -41 234
-235 40
-235 -41
-40 41 235
-236 -234
-236 -235
234 235 236
-237 40
-237 41
-40 -41 237
-238 233
-238 -236
-233 236 238
-239 -233
-239 236
233 -236 239
-240 -238
-240 -239
238 239 240
-241 -233
-241 -236
233 236 241
-242 -237
-242 -241
237 241 242
-243 -41
-243 42
41 -42 243
-244 41
-244 -42
-41 42 244
-245 -243
-245 -244
243 244 245
-246 41
-246 42
-41 -42 246
-247 242
-247 -245
-242 245 247
-248 -242
-248 245
242 -245 248
-249 -247
-249 -248
247 248 249
-250 -242
-250 -245
242 245 250
-251 -246
-251 -250
246 250 251
-252 -42
-252 43
42 -43 252
-253 42
-253 -43
-42 43 253
-254 -252
-254 -253
252 253 254
-255 42
-255 43
-42 -43 255
-256 251
-256 -254
-251 254 256
-257 -251
-257 254
251 -254 257
-258 -256
-258 -257
256 257 258
-259 -251
-259 -254
251 254 259
-260 -255
-260 -259
255 259 260
-261 -43
-261 44
43 -44 261
-262 43
-262 -44
-43 44 262
-263 -261
-263 -262
261 262 263
-264 43
-264 44
-43 -44 264
-265 260
-265 -263
-260 263 265
-266 -260
-266 263
260 -263 266
-267 -265
-267 -266
265 266 267
-268 -260
-268 -263
260 263 268
-269 -264
-269 -268
264 268 269
-270 -44
-270 45
44 -45 270
-271 44
-271 -45
-44 45 271
-272 -270
-272 -271
270 271 272
-273 44
-273 45
-44 -45 273
-274 269
-274 -272
-269 272 274
-275 -269
-275 272
269 -272 275
-276 -274
-276 -275
274 275 276
-277 -269
-277 -272
269 272 277
-278 -273
-278 -277
273 277 278
-279 -45
-279 46
45 -46 279
-280 45
-280 -46
-45 46 280
-281 -279
-281 -280
279 280 281
-282 45
-282 46
-45 -46 282
-283 278
-283 -281
-278 281 283
-284 -278
-284 281
278 -281 284
-285 -283
-285 -284
283 284 285
-286 -278
-286 -281
278 281 286
-287 -282
-287 -286
282 286 287
-288 -46
-288 47
46 -47 288
-289 46
-289 -47
-46 47 289
-290 -288
-290 -289
288 289 290
-291 46
-291 47
-46 -47 291
-292 287
-292 -290
-287 290 292
-293 -287
-293 290
287 -290 293
-294 -292
-294 -293
292 293 294
-295 -287
-295 -290
287 290 295
-296 -291
-296 -295
291 295 296
-297 -47
-297 48
47 -48 297
-298 47
-298 -48
-47 48 298
-299 -297
-299 -298
297 298 299
-300 47
-300 48
-47 -48 300
-301 296
-301 -299
-296 299 301
-302 -296
-302 299
296 -299 302
-303 -301
-303 -302
301 302 303
-304 -296
-304 -299
296 299 304
-305 -300
-305 -304
300 304 305
-306 -48
-306 49
48 -49 306
-307 48
-307 -49
-48 49 307
-308 -306
-308 -307
306 307 308
-309 48
-309 49
-48 -49 309
-310 305
-310 -308
-305 308 310
-311 -305
-311 308
305 -308 311
-312 -310
-312 -311
310 311 312
-313 -305
-313 -308
305 308 313
-314 -309
-314 -313
309 313 314
-315 -49
-315 50
49 -50 315
-316 49
-316 -50
-49 50 316
-317 -315
-317 -316
315 316 317
-318 49
-318 50
-49 -50 318
-319 314
-319 -317
-314 317 319
-320 -314
-320 317
314 -317 320
-321 -319
-321 -320
319 320 321
-322 -314
-322 -317
314 317 322
-323 -318
-323 -322
318 322 323
-324 -50
-324 51
50 -51 324
-325 50
-325 -51
-50 51 325
-326 -324
-326 -325
324 325 326
-327 50
-327 51
-50 -51 327
-328 323
-328 -326
-323 326 328
-329 -323
-329 326
323 -326 329
-330 -328
-330 -329
328 329 330
-331 -323
-331 -326
323 326 331
-332 -327
-332 -331
327 331 332
-333 -51
-333 52
51 -52 333
-334 51
-334 -52
-51 52 334
-335 -333
-335 -334
333 334 335
-336 51
-336 52
-51 -52 336
-337 332
-337 -335
-332 335 337
-338 -332
-338 335
332 -335 338
-339 -337
-339 -338
337 338 339
-340 -332
-340 -335
332 335 340
-341 -336
-341 -340
336 340 341
-342 -52
-342 53
52 -53 342
-343 52
-343 -53
-52 53 343
-344 -342
-344 -343
342 343 344
-345 52
-345 53
-52 -53 345
-346 341
-346 -344
-341 344 346
-347 -341
-347 344
341 -344 347
-348 -346
-348 -347
346 347 348
-349 -341
-349 -344
341 344 349
-350 -345
-350 -349
345 349 350
-351 -53
-351 54
53 -54 351
-352 53
-352 -54
-53 54 352
-353 -351
-353 -352
351 352 353
-354 53
-354 54
-53 -54 354
-355 350
-355 -353
-350 353 355
-356 -350
-356 353
350 -353 356
-357 -355
-357 -356
355 356 357
-358 -350
-358 -353
350 353 358
-359 -354
-359 -358
354 358 359
-360 -54
-360 55
54 -55 360
-361 54
-361 -55
-54 55 361
-362 -360
-362 -361
360 361 362
-363 54
-363 55
-54 -55 363
-364 359
-364 -362
-359 362 364
-365 -359
-365 362
359 -362 365
-366 -364
-366 -365
364 365 366
-367 -359
-367 -362
359 362 367
-368 -363
-368 -367
363 367 368
-369 -55
-369 56
55 -56 369
-370 55
-370 -56
-55 56 370
-371 -369
-371 -370
369 370 371
-372 55
-372 56
-55 -56 372
-373 368
-373 -371
-368 371 373
-374 -368
-374 371
368 -371 374
-375 -373
-375 -374
373 374 375
-376 -368
-376 -371
368 371 376
-377 -372
-377 -376
372 376 377
-378 -56
-378 57
56 -57 378
-379 56
-379 -57
-56 57 379
-380 -378
-380 -379
378 379 380
-381 56
-381 57
-56 -57 381
-382 377
-382 -380
-377 380 382
-383 -377
-383 380
377 -380 383
-384 -382
-384 -383
382 383 384
-385 -377
-385 -380
377 380 385
-386 -381
-386 -385
381 385 386
-387 24
-387 -96
-24 96 387
-388 -24
-388 26
24 -26 388
-389 -387
-389 -388
387 388 389
-390 24
-390 -105
-24 105 390
-391 -24
-391 27
24 -27 391
-392 -390
-392 -391
390 391 392
-393 24
-393 -114
-24 114 393
-394 -24
-394 28
24 -28 394
-395 -393
-395 -394
393 394 395
-396 24
-396 -123
-24 123 396
-397 -24
-397 29
24 -29 397
-398 -396
-398 -397
396 397 398
-399 24
-399 -132
-24 132 399
-400 -24
-400 30
24 -30 400
-401 -399
-401 -400
399 400 401
-402 24
-402 -141
-24 141 402
-403 -24
-403 31
24 -31 403
-404 -402
-404 -403
402 403 404
-405 24
-405 -150
-24 150 405
-406 -24
-406 32
24 -32 406
-407 -405
-407 -406
405 406 407
-408 24
-408 -159
-24 159 408
-409 -24
-409 33
24 -33 409
-410 -408
-410 -409
408 409 410
-411 24
-411 -168
-24 168 411
-412 -24
-412 34
24 -34 412
-413 -411
-413 -412
411 412 413
-414 24
-414 -177
-24 177 414
-415 -24
-415 35
24 -35 415
-416 -414
-416 -415
414 415 416
-417 24
-417 -186
-24 186 417
-418 -24
-418 36
24 -36 418
-419 -417
-419 -418
417 418 419
-420 24
-420 -195
-24 195 420
-421 -24
-421 37
24 -37 421
-422 -420
-422 -421
420 421 422
-423 24
-423 -204
-24 204 423
-424 -24
-424 38
24 -38 424
-425 -423
-425 -424
423 424 425
-426 24
-426 -213
-24 213 426
-427 -24
-427 39
24 -39 427
-428 -426
-428 -427
426 427 428
-429 24
-429 -222
-24 222 429
-430 -24
-430 40
24 -40 430
-431 -429
-431 -430
429 430 431
-432 24
-432 -231
-24 231 432
-433 -24
-433 41
24 -41 433
-434 -432
-434 -433
432 433 434
-435 24
-435 -240
-24 240 435
-436 -24
-436 42
24 -42 436
-437 -435
-437 -436
435 436 437
-438 24
-438 -249
-24 249 438
-439 -24
-439 43
24 -43 439
-440 -438
-440 -439
438 439 440
-441 24
-441 -258
-24 258 441
-442 -24
-442 44
24 -44 442
-443 -441
-443 -442
441 442 443
-444 24
-444 -267
-24 267 444
-445 -24
-445 45
24 -45 445
-446 -444
-446 -445
444 445 446
-447 24
-447 -276
-24 276 447
-448 -24
-448 46
24 -46 448
-449 -447
-449 -448
447 448 449
-450 24
-450 -285
-24 285 450
-451 -24
-451 47
24 -47 451
-452 -450
-452 -451
450 451 452
-453 24
-453 -294
-24 294 453
-454 -24
-454 48
24 -48 454
-455 -453
-455 -454
453 454 455
-456 24
-456 -303
-24 303 456
-457 -24
-457 49
24 -49 457
-458 -456
-458 -457
456 457 458
-459 24
-459 -312
-24 312 459
-460 -24
-460 50
24 -50 460
-461 -459
-461 -460
459 460 461
-462 24
-462 -321
-24 321 462
-463 -24
-463 51
24 -51 463
-464 -462
-464 -463
462 463 464
-465 24
-465 -330
-24 330 465
-466 -24
-466 52
24 -52 466
-467 -465
-467 -466
465 466 467
-468 24
-468 -339
-24 339 468
-469 -24
-469 53
24 -53 469
-470 -468
-470 -469
468 469 470
-471 24
-471 -348
-24 348 471
-472 -24
-472 54
24 -54 472
-473 -471
-473 -472
471 472 473
-474 24
-474 -357
-24 357 474
-475 -24
-475 55
24 -55 475
-476 -474
-476 -475
474 475 476
-477 24
-477 -366
-24 366 477
-478 -24
-478 56
24 -56 478
-479 -477
-479 -478
477 478 479
-480 24
-480 -375
-24 375 480
-481 -24
-481 57
24 -57 481
-482 -480
-482 -481
480 481 482
-483 24
-483 -384
-24 384 483
-484 1
-484 89
-1 -89 484
-485 -89
-485 90
89 -90 485
-486 -484
-486 -485
484 485 486
-487 2
-487 89
-2 -89 487
-488 -89
-488 -389
89 389 488
-489 -487
-489 -488
487 488 489
-490 3
-490 89
-3 -89 490
-491 -89
-491 -392
89 392 491
-492 -490
-492 -491
490 491 492
-493 4
-493 89
-4 -89 493
-494 -89
-494 -395
89 395 494
-495 -493
-495 -494
493 494 495
-496 5
-496 89
-5 -89 496
-497 -89
-497 -398
89 398 497
-498 -496
-498 -497
496 497 498
-499 6
-499 89
-6 -89 499
-500 -89
-500 -401
89 401 500
-501 -499
-501 -500
499 500 501
-502 7
-502 89
-7 -89 502
-503 -89
-503 -404
89 404 503
-504 -502
-504 -503
502 503 504
-505 8
-505 89
-8 -89 505
-506 -89
-506 -407
89 407 506
-507 -505
-507 -506
505 506 507
-508 9
-508 89
-9 -89 508
-509 -89
-509 -410
89 410 509
-510 -508
-510 -509
508 509 510
-511 10
-511 89
-10 -89 511
-512 -89
-512 -413
89 413 512
-513 -511
-513 -512
511 512 513
-514 11
-514 89
-11 -89 514
-515 -89
-515 -416
89 416 515
-516 -514
-516 -515
514 515 516
-517 12
-517 89
-12 -89 517
-518 -89
-518 -419
89 419 518
-519 -517
-519 -518
517 518 519
-520 13
-520 89
-13 -89 520
-521 -89
-521 -422
89 422 521
-522 -520
-522 -521
520 521 522
-523 14
-523 89
-14 -89 523
-524 -89
-524 -425
89 425 524
-525 -523
-525 -524
523 524 525
-526 15
-526 89
-15 -89 526
-527 -89
-527 -428
89 428 527
-528 -526
-528 -527
526 527 528
-529 16
-529 89
-16 -89 529
-530 -89
-530 -431
89 431 530
-531 -529
-531 -530
529 530 531
-532 17
-532 89
-17 -89 532
-533 -89
-533 -434
89 434 533
-534 -532
-534 -533
532 533 534
-535 18
-535 89
-18 -89 535
-536 -89
-536 -437
89 437 536
-537 -535
-537 -536
535 536 537
-538 19
-538 89
-19 -89 538
-539 -89
-539 -440
89 440 539
-540 -538
-540 -539
538 539 540
-541 20
-541 89
-20 -89 541
-542 -89
-542 -443
89 443 542
-543 -541
-543 -542
541 542 543
-544 21
-544 89
-21 -89 544
-545 -89
-545 -446
89 446 545
-546 -544
-546 -545
544 545 546
-547 22
-547 89
-22 -89 547
-548 -89
-548 -449
89 449 548
-549 -547
-549 -548
547 548 549
-550 23
-550 89
-23 -89 550
-551 -89
-551 -452
89 452 551
-552 -550
-552 -551
550 551 552
-553 -89
-553 -455
89 455 553
-554 -89
-554 -458
89 458 554
-555 -89
-555 -461
89 461 555
-556 -89
-556 -464
89 464 556
-557 -89
-557 -467
89 467 557
-558 -89
-558 -470
89 470 558
-559 -89
-559 -473
89 473 559
-560 -89
-560 -476
89 476 560
-561 -89
-561 -479
89 479 561
-562 -89
-562 -482
89 482 562
-563 -89
-563 483
89 -483 563
-564 -57
-564 386
57 -386 564
-565 24
-565 -564
-24 564 565
565
